Minimize
M1 + M2
Subject To
x0,5 + x0,6 + x0,7 + x0,8 + x0,9 + x0,10 + x0,11 = 1
x1,4 + x1,5 + x1,6 + x1,7 + x1,8 + x1,9 + x1,10 = 1
x2,3 + x2,4 + x2,5 + x2,6 + x2,7 + x2,8 + x2,9 = 1
x3,2 + x3,3 + x3,4 + x3,5 + x3,6 + x3,7 + x3,8 = 1
x4,1 + x4,2 + x4,3 + x4,4 + x4,5 + x4,6 + x4,7 = 1
x5,5 + x5,6 + x5,7 + x5,8 + x5,9 + x5,10 + x5,11 + x5,12 = 1
x6,7 + x6,8 + x6,9 + x6,10 + x6,11 + x6,12 = 1
x7,5 + x7,6 + x7,7 + x7,8 + x7,9 + x7,10 = 1
x8,4 + x8,5 + x8,6 + x8,7 + x8,8 + x8,9 = 1
x9,3 + x9,4 + x9,5 + x9,6 + x9,7 + x9,8 = 1
x10,2 + x10,3 + x10,4 + x10,5 + x10,6 + x10,7 = 1
x11,1 + x11,2 + x11,3 + x11,4 + x11,5 + x11,6 = 1
x12,7 + x12,8 + x12,9 + x12,10 + x12,11 + x12,12 = 1
x13,5 + x13,6 + x13,7 + x13,8 + x13,9 + x13,10 = 1
x14,4 + x14,5 + x14,6 + x14,7 + x14,8 + x14,9 = 1
x15,3 + x15,4 + x15,5 + x15,6 + x15,7 + x15,8 = 1
x16,2 + x16,3 + x16,4 + x16,5 + x16,6 + x16,7 = 1
x17,1 + x17,2 + x17,3 + x17,4 + x17,5 + x17,6 = 1
x18,8 + x18,9 + x18,10 + x18,11 + x18,12 = 1
x19,5 + x19,6 + x19,7 + x19,8 + x19,9 + x19,10 = 1
x20,4 + x20,5 + x20,6 + x20,7 + x20,8 + x20,9 = 1
x21,3 + x21,4 + x21,5 + x21,6 + x21,7 + x21,8 = 1
x22,2 + x22,3 + x22,4 + x22,5 + x22,6 + x22,7 = 1
x23,1 + x23,2 + x23,3 + x23,4 + x23,5 + x23,6 = 1
x24,4 + x24,5 + x24,6 + x24,7 + x24,8 + x24,9 + x24,10 + x24,11 = 1
x25,7 + x25,8 + x25,9 + x25,10 + x25,11 = 1
x26,5 + x26,6 + x26,7 + x26,8 + x26,9 = 1
x27,4 + x27,5 + x27,6 + x27,7 + x27,8 = 1
x28,3 + x28,4 + x28,5 + x28,6 + x28,7 = 1
x29,2 + x29,3 + x29,4 + x29,5 + x29,6 = 1
x30,1 + x30,2 + x30,3 + x30,4 + x30,5 = 1
x31,7 + x31,8 + x31,9 + x31,10 + x31,11 = 1
x32,5 + x32,6 + x32,7 + x32,8 + x32,9 = 1
x33,4 + x33,5 + x33,6 + x33,7 + x33,8 = 1
x34,3 + x34,4 + x34,5 + x34,6 + x34,7 = 1
x35,2 + x35,3 + x35,4 + x35,5 + x35,6 = 1
x36,1 + x36,2 + x36,3 + x36,4 + x36,5 = 1
x37,8 + x37,9 + x37,10 + x37,11 + x37,12 = 1
x38,5 + x38,6 + x38,7 + x38,8 + x38,9 + x38,10 = 1
x39,4 + x39,5 + x39,6 + x39,7 + x39,8 + x39,9 = 1
x40,3 + x40,4 + x40,5 + x40,6 + x40,7 + x40,8 = 1
x41,3 + x41,4 + x41,5 + x41,6 + x41,7 + x41,8 + x41,9 + x41,10 = 1
x42,2 + x42,3 + x42,4 + x42,5 + x42,6 + x42,7 = 1
x43,1 + x43,2 + x43,3 + x43,4 + x43,5 + x43,6 = 1
x44,7 + x44,8 + x44,9 + x44,10 + x44,11 = 1
x45,5 + x45,6 + x45,7 + x45,8 + x45,9 = 1
x46,4 + x46,5 + x46,6 + x46,7 + x46,8 = 1
x47,3 + x47,4 + x47,5 + x47,6 + x47,7 = 1
x48,2 + x48,3 + x48,4 + x48,5 + x48,6 = 1
x49,1 + x49,2 + x49,3 + x49,4 + x49,5 = 1
x50,7 + x50,8 + x50,9 + x50,10 + x50,11 = 1
x51,5 + x51,6 + x51,7 + x51,8 + x51,9 = 1
x52,4 + x52,5 + x52,6 + x52,7 + x52,8 = 1
x53,3 + x53,4 + x53,5 + x53,6 + x53,7 = 1
x54,2 + x54,3 + x54,4 + x54,5 + x54,6 = 1
x55,1 + x55,2 + x55,3 + x55,4 + x55,5 = 1
x4,1 + x11,1 + x17,1 + x23,1 + x30,1 + x36,1 + x43,1 + x49,1 + x55,1 - M2 <= 0
x3,2 + x4,2 + x10,2 + x11,2 + x16,2 + x17,2 + x22,2 + x23,2 + x29,2 + x30,2 + x35,2 + x36,2 + x42,2 + x43,2 + x48,2 + x49,2 + x54,2 + x55,2 - M2 <= 0
x2,3 + x3,3 + x4,3 + x9,3 + x10,3 + x11,3 + x15,3 + x16,3 + x17,3 + x21,3 + x22,3 + x23,3 + x28,3 + x29,3 + x30,3 + x34,3 + x35,3 + x36,3 + x40,3 + x41,3 + x42,3 + x43,3 + x47,3 + x48,3 + x49,3 + x53,3 + x54,3 + x55,3 - M2 <= 0
x1,4 + x2,4 + x3,4 + x4,4 + x8,4 + x9,4 + x10,4 + x11,4 + x14,4 + x15,4 + x16,4 + x17,4 + x20,4 + x21,4 + x22,4 + x23,4 + x24,4 + x27,4 + x28,4 + x29,4 + x30,4 + x33,4 + x34,4 + x35,4 + x36,4 + x39,4 + x40,4 + x41,4 + x42,4 + x43,4 + x46,4 + x47,4 + x48,4 + x49,4 + x52,4 + x53,4 + x54,4 + x55,4 - M2 <= 0
x1,5 + x2,5 + x3,5 + x4,5 + x5,5 + x8,5 + x9,5 + x10,5 + x11,5 + x14,5 + x15,5 + x16,5 + x17,5 + x20,5 + x21,5 + x22,5 + x23,5 + x24,5 + x27,5 + x28,5 + x29,5 + x30,5 + x33,5 + x34,5 + x35,5 + x36,5 + x39,5 + x40,5 + x41,5 + x42,5 + x43,5 + x46,5 + x47,5 + x48,5 + x49,5 + x52,5 + x53,5 + x54,5 + x55,5 - M2 <= 0
x0,5 + x0,4 + x7,5 + x7,4 + x13,5 + x13,4 + x19,5 + x19,4 + x26,5 + x26,4 + x32,5 + x32,4 + x38,5 + x38,4 + x45,5 + x45,4 + x51,5 + x51,4 - M1 <= 0
x1,6 + x2,6 + x3,6 + x4,6 + x5,6 + x8,6 + x9,6 + x10,6 + x11,6 + x14,6 + x15,6 + x16,6 + x17,6 + x20,6 + x21,6 + x22,6 + x23,6 + x24,6 + x27,6 + x28,6 + x29,6 + x33,6 + x34,6 + x35,6 + x39,6 + x40,6 + x41,6 + x42,6 + x43,6 + x46,6 + x47,6 + x48,6 + x52,6 + x53,6 + x54,6 - M2 <= 0
x0,6 + x0,5 + x7,6 + x7,5 + x13,6 + x13,5 + x19,6 + x19,5 + x26,6 + x26,5 + x32,6 + x32,5 + x38,6 + x38,5 + x45,6 + x45,5 + x51,6 + x51,5 - M1 <= 0
x1,7 + x2,7 + x3,7 + x4,7 + x5,7 + x6,7 + x8,7 + x9,7 + x10,7 + x12,7 + x14,7 + x15,7 + x16,7 + x20,7 + x21,7 + x22,7 + x24,7 + x25,7 + x27,7 + x28,7 + x31,7 + x33,7 + x34,7 + x39,7 + x40,7 + x41,7 + x42,7 + x44,7 + x46,7 + x47,7 + x50,7 + x52,7 + x53,7 - M2 <= 0
x0,7 + x0,6 + x7,7 + x7,6 + x13,7 + x13,6 + x19,7 + x19,6 + x26,7 + x26,6 + x32,7 + x32,6 + x38,7 + x38,6 + x45,7 + x45,6 + x51,7 + x51,6 - M1 <= 0
x1,8 + x2,8 + x3,8 + x5,8 + x6,8 + x8,8 + x9,8 + x12,8 + x14,8 + x15,8 + x18,8 + x20,8 + x21,8 + x24,8 + x25,8 + x27,8 + x31,8 + x33,8 + x37,8 + x39,8 + x40,8 + x41,8 + x44,8 + x46,8 + x50,8 + x52,8 - M2 <= 0
x0,8 + x0,7 + x7,8 + x7,7 + x13,8 + x13,7 + x19,8 + x19,7 + x26,8 + x26,7 + x32,8 + x32,7 + x38,8 + x38,7 + x45,8 + x45,7 + x51,8 + x51,7 - M1 <= 0
x1,9 + x2,9 + x5,9 + x6,9 + x8,9 + x12,9 + x14,9 + x18,9 + x20,9 + x24,9 + x25,9 + x31,9 + x37,9 + x39,9 + x41,9 + x44,9 + x50,9 - M2 <= 0
x0,9 + x0,8 + x7,9 + x7,8 + x13,9 + x13,8 + x19,9 + x19,8 + x26,9 + x26,8 + x32,9 + x32,8 + x38,9 + x38,8 + x45,9 + x45,8 + x51,9 + x51,8 - M1 <= 0
x1,10 + x5,10 + x6,10 + x12,10 + x18,10 + x24,10 + x25,10 + x31,10 + x37,10 + x41,10 + x44,10 + x50,10 - M2 <= 0
x0,10 + x0,9 + x7,10 + x7,9 + x13,10 + x13,9 + x19,10 + x19,9 + x26,10 + x26,9 + x32,10 + x32,9 + x38,10 + x38,9 + x45,10 + x45,9 + x51,10 + x51,9 - M1 <= 0
x5,11 + x6,11 + x12,11 + x18,11 + x24,11 + x25,11 + x31,11 + x37,11 + x44,11 + x50,11 - M2 <= 0
x0,11 + x0,10 + x7,11 + x7,10 + x13,11 + x13,10 + x19,11 + x19,10 + x38,11 + x38,10 - M1 <= 0
x5,12 + x6,12 + x12,12 + x18,12 + x37,12 - M2 <= 0
4 x1,4 + 5 x1,5 + 6 x1,6 + 7 x1,7 + 8 x1,8 + 9 x1,9 + 10 x1,10 - 5 x0,5 - 6 x0,6 - 7 x0,7 - 8 x0,8 - 9 x0,9 - 10 x0,10 - 11 x0,11 <= -1
3 x2,3 + 4 x2,4 + 5 x2,5 + 6 x2,6 + 7 x2,7 + 8 x2,8 + 9 x2,9 - 4 x1,4 - 5 x1,5 - 6 x1,6 - 7 x1,7 - 8 x1,8 - 9 x1,9 - 10 x1,10 <= -1
2 x3,2 + 3 x3,3 + 4 x3,4 + 5 x3,5 + 6 x3,6 + 7 x3,7 + 8 x3,8 - 3 x2,3 - 4 x2,4 - 5 x2,5 - 6 x2,6 - 7 x2,7 - 8 x2,8 - 9 x2,9 <= -1
1 x4,1 + 2 x4,2 + 3 x4,3 + 4 x4,4 + 5 x4,5 + 6 x4,6 + 7 x4,7 - 4 x1,4 - 5 x1,5 - 6 x1,6 - 7 x1,7 - 8 x1,8 - 9 x1,9 - 10 x1,10 <= -1
1 x4,1 + 2 x4,2 + 3 x4,3 + 4 x4,4 + 5 x4,5 + 6 x4,6 + 7 x4,7 - 2 x3,2 - 3 x3,3 - 4 x3,4 - 5 x3,5 - 6 x3,6 - 7 x3,7 - 8 x3,8 <= -1
5 x7,5 + 6 x7,6 + 7 x7,7 + 8 x7,8 + 9 x7,9 + 10 x7,10 - 7 x6,7 - 8 x6,8 - 9 x6,9 - 10 x6,10 - 11 x6,11 - 12 x6,12 <= -2
4 x8,4 + 5 x8,5 + 6 x8,6 + 7 x8,7 + 8 x8,8 + 9 x8,9 - 5 x7,5 - 6 x7,6 - 7 x7,7 - 8 x7,8 - 9 x7,9 - 10 x7,10 <= -1
3 x9,3 + 4 x9,4 + 5 x9,5 + 6 x9,6 + 7 x9,7 + 8 x9,8 - 4 x8,4 - 5 x8,5 - 6 x8,6 - 7 x8,7 - 8 x8,8 - 9 x8,9 <= -1
2 x10,2 + 3 x10,3 + 4 x10,4 + 5 x10,5 + 6 x10,6 + 7 x10,7 - 5 x5,5 - 6 x5,6 - 7 x5,7 - 8 x5,8 - 9 x5,9 - 10 x5,10 - 11 x5,11 - 12 x5,12 <= -1
2 x10,2 + 3 x10,3 + 4 x10,4 + 5 x10,5 + 6 x10,6 + 7 x10,7 - 3 x9,3 - 4 x9,4 - 5 x9,5 - 6 x9,6 - 7 x9,7 - 8 x9,8 <= -1
1 x11,1 + 2 x11,2 + 3 x11,3 + 4 x11,4 + 5 x11,5 + 6 x11,6 - 4 x8,4 - 5 x8,5 - 6 x8,6 - 7 x8,7 - 8 x8,8 - 9 x8,9 <= -1
1 x11,1 + 2 x11,2 + 3 x11,3 + 4 x11,4 + 5 x11,5 + 6 x11,6 - 2 x10,2 - 3 x10,3 - 4 x10,4 - 5 x10,5 - 6 x10,6 - 7 x10,7 <= -1
5 x13,5 + 6 x13,6 + 7 x13,7 + 8 x13,8 + 9 x13,9 + 10 x13,10 - 7 x12,7 - 8 x12,8 - 9 x12,9 - 10 x12,10 - 11 x12,11 - 12 x12,12 <= -2
4 x14,4 + 5 x14,5 + 6 x14,6 + 7 x14,7 + 8 x14,8 + 9 x14,9 - 5 x13,5 - 6 x13,6 - 7 x13,7 - 8 x13,8 - 9 x13,9 - 10 x13,10 <= -1
3 x15,3 + 4 x15,4 + 5 x15,5 + 6 x15,6 + 7 x15,7 + 8 x15,8 - 4 x14,4 - 5 x14,5 - 6 x14,6 - 7 x14,7 - 8 x14,8 - 9 x14,9 <= -1
2 x16,2 + 3 x16,3 + 4 x16,4 + 5 x16,5 + 6 x16,6 + 7 x16,7 - 5 x5,5 - 6 x5,6 - 7 x5,7 - 8 x5,8 - 9 x5,9 - 10 x5,10 - 11 x5,11 - 12 x5,12 <= -1
2 x16,2 + 3 x16,3 + 4 x16,4 + 5 x16,5 + 6 x16,6 + 7 x16,7 - 3 x15,3 - 4 x15,4 - 5 x15,5 - 6 x15,6 - 7 x15,7 - 8 x15,8 <= -1
1 x17,1 + 2 x17,2 + 3 x17,3 + 4 x17,4 + 5 x17,5 + 6 x17,6 - 4 x14,4 - 5 x14,5 - 6 x14,6 - 7 x14,7 - 8 x14,8 - 9 x14,9 <= -1
1 x17,1 + 2 x17,2 + 3 x17,3 + 4 x17,4 + 5 x17,5 + 6 x17,6 - 2 x16,2 - 3 x16,3 - 4 x16,4 - 5 x16,5 - 6 x16,6 - 7 x16,7 <= -1
5 x19,5 + 6 x19,6 + 7 x19,7 + 8 x19,8 + 9 x19,9 + 10 x19,10 - 8 x18,8 - 9 x18,9 - 10 x18,10 - 11 x18,11 - 12 x18,12 <= -2
4 x20,4 + 5 x20,5 + 6 x20,6 + 7 x20,7 + 8 x20,8 + 9 x20,9 - 5 x19,5 - 6 x19,6 - 7 x19,7 - 8 x19,8 - 9 x19,9 - 10 x19,10 <= -1
3 x21,3 + 4 x21,4 + 5 x21,5 + 6 x21,6 + 7 x21,7 + 8 x21,8 - 4 x20,4 - 5 x20,5 - 6 x20,6 - 7 x20,7 - 8 x20,8 - 9 x20,9 <= -1
2 x22,2 + 3 x22,3 + 4 x22,4 + 5 x22,5 + 6 x22,6 + 7 x22,7 - 5 x5,5 - 6 x5,6 - 7 x5,7 - 8 x5,8 - 9 x5,9 - 10 x5,10 - 11 x5,11 - 12 x5,12 <= -1
2 x22,2 + 3 x22,3 + 4 x22,4 + 5 x22,5 + 6 x22,6 + 7 x22,7 - 3 x21,3 - 4 x21,4 - 5 x21,5 - 6 x21,6 - 7 x21,7 - 8 x21,8 <= -1
1 x23,1 + 2 x23,2 + 3 x23,3 + 4 x23,4 + 5 x23,5 + 6 x23,6 - 4 x20,4 - 5 x20,5 - 6 x20,6 - 7 x20,7 - 8 x20,8 - 9 x20,9 <= -1
1 x23,1 + 2 x23,2 + 3 x23,3 + 4 x23,4 + 5 x23,5 + 6 x23,6 - 2 x22,2 - 3 x22,3 - 4 x22,4 - 5 x22,5 - 6 x22,6 - 7 x22,7 <= -1
4 x24,4 + 5 x24,5 + 6 x24,6 + 7 x24,7 + 8 x24,8 + 9 x24,9 + 10 x24,10 + 11 x24,11 - 5 x5,5 - 6 x5,6 - 7 x5,7 - 8 x5,8 - 9 x5,9 - 10 x5,10 - 11 x5,11 - 12 x5,12 <= -1
7 x25,7 + 8 x25,8 + 9 x25,9 + 10 x25,10 + 11 x25,11 - 8 x18,8 - 9 x18,9 - 10 x18,10 - 11 x18,11 - 12 x18,12 <= -1
5 x26,5 + 6 x26,6 + 7 x26,7 + 8 x26,8 + 9 x26,9 - 7 x25,7 - 8 x25,8 - 9 x25,9 - 10 x25,10 - 11 x25,11 <= -2
4 x27,4 + 5 x27,5 + 6 x27,6 + 7 x27,7 + 8 x27,8 - 5 x26,5 - 6 x26,6 - 7 x26,7 - 8 x26,8 - 9 x26,9 <= -1
3 x28,3 + 4 x28,4 + 5 x28,5 + 6 x28,6 + 7 x28,7 - 4 x27,4 - 5 x27,5 - 6 x27,6 - 7 x27,7 - 8 x27,8 <= -1
2 x29,2 + 3 x29,3 + 4 x29,4 + 5 x29,5 + 6 x29,6 - 4 x24,4 - 5 x24,5 - 6 x24,6 - 7 x24,7 - 8 x24,8 - 9 x24,9 - 10 x24,10 - 11 x24,11 <= -1
2 x29,2 + 3 x29,3 + 4 x29,4 + 5 x29,5 + 6 x29,6 - 3 x28,3 - 4 x28,4 - 5 x28,5 - 6 x28,6 - 7 x28,7 <= -1
1 x30,1 + 2 x30,2 + 3 x30,3 + 4 x30,4 + 5 x30,5 - 4 x27,4 - 5 x27,5 - 6 x27,6 - 7 x27,7 - 8 x27,8 <= -1
1 x30,1 + 2 x30,2 + 3 x30,3 + 4 x30,4 + 5 x30,5 - 2 x29,2 - 3 x29,3 - 4 x29,4 - 5 x29,5 - 6 x29,6 <= -1
7 x31,7 + 8 x31,8 + 9 x31,9 + 10 x31,10 + 11 x31,11 - 8 x18,8 - 9 x18,9 - 10 x18,10 - 11 x18,11 - 12 x18,12 <= -1
5 x32,5 + 6 x32,6 + 7 x32,7 + 8 x32,8 + 9 x32,9 - 7 x31,7 - 8 x31,8 - 9 x31,9 - 10 x31,10 - 11 x31,11 <= -2
4 x33,4 + 5 x33,5 + 6 x33,6 + 7 x33,7 + 8 x33,8 - 5 x32,5 - 6 x32,6 - 7 x32,7 - 8 x32,8 - 9 x32,9 <= -1
3 x34,3 + 4 x34,4 + 5 x34,5 + 6 x34,6 + 7 x34,7 - 4 x33,4 - 5 x33,5 - 6 x33,6 - 7 x33,7 - 8 x33,8 <= -1
2 x35,2 + 3 x35,3 + 4 x35,4 + 5 x35,5 + 6 x35,6 - 5 x5,5 - 6 x5,6 - 7 x5,7 - 8 x5,8 - 9 x5,9 - 10 x5,10 - 11 x5,11 - 12 x5,12 <= -1
2 x35,2 + 3 x35,3 + 4 x35,4 + 5 x35,5 + 6 x35,6 - 4 x24,4 - 5 x24,5 - 6 x24,6 - 7 x24,7 - 8 x24,8 - 9 x24,9 - 10 x24,10 - 11 x24,11 <= -1
2 x35,2 + 3 x35,3 + 4 x35,4 + 5 x35,5 + 6 x35,6 - 3 x34,3 - 4 x34,4 - 5 x34,5 - 6 x34,6 - 7 x34,7 <= -1
1 x36,1 + 2 x36,2 + 3 x36,3 + 4 x36,4 + 5 x36,5 - 4 x33,4 - 5 x33,5 - 6 x33,6 - 7 x33,7 - 8 x33,8 <= -1
1 x36,1 + 2 x36,2 + 3 x36,3 + 4 x36,4 + 5 x36,5 - 2 x35,2 - 3 x35,3 - 4 x35,4 - 5 x35,5 - 6 x35,6 <= -1
5 x38,5 + 6 x38,6 + 7 x38,7 + 8 x38,8 + 9 x38,9 + 10 x38,10 - 8 x37,8 - 9 x37,9 - 10 x37,10 - 11 x37,11 - 12 x37,12 <= -2
4 x39,4 + 5 x39,5 + 6 x39,6 + 7 x39,7 + 8 x39,8 + 9 x39,9 - 5 x38,5 - 6 x38,6 - 7 x38,7 - 8 x38,8 - 9 x38,9 - 10 x38,10 <= -1
3 x40,3 + 4 x40,4 + 5 x40,5 + 6 x40,6 + 7 x40,7 + 8 x40,8 - 4 x39,4 - 5 x39,5 - 6 x39,6 - 7 x39,7 - 8 x39,8 - 9 x39,9 <= -1
3 x41,3 + 4 x41,4 + 5 x41,5 + 6 x41,6 + 7 x41,7 + 8 x41,8 + 9 x41,9 + 10 x41,10 - 5 x5,5 - 6 x5,6 - 7 x5,7 - 8 x5,8 - 9 x5,9 - 10 x5,10 - 11 x5,11 - 12 x5,12 <= -1
3 x41,3 + 4 x41,4 + 5 x41,5 + 6 x41,6 + 7 x41,7 + 8 x41,8 + 9 x41,9 + 10 x41,10 - 4 x24,4 - 5 x24,5 - 6 x24,6 - 7 x24,7 - 8 x24,8 - 9 x24,9 - 10 x24,10 - 11 x24,11 <= -1
2 x42,2 + 3 x42,3 + 4 x42,4 + 5 x42,5 + 6 x42,6 + 7 x42,7 - 3 x40,3 - 4 x40,4 - 5 x40,5 - 6 x40,6 - 7 x40,7 - 8 x40,8 <= -1
2 x42,2 + 3 x42,3 + 4 x42,4 + 5 x42,5 + 6 x42,6 + 7 x42,7 - 3 x41,3 - 4 x41,4 - 5 x41,5 - 6 x41,6 - 7 x41,7 - 8 x41,8 - 9 x41,9 - 10 x41,10 <= -1
1 x43,1 + 2 x43,2 + 3 x43,3 + 4 x43,4 + 5 x43,5 + 6 x43,6 - 4 x39,4 - 5 x39,5 - 6 x39,6 - 7 x39,7 - 8 x39,8 - 9 x39,9 <= -1
1 x43,1 + 2 x43,2 + 3 x43,3 + 4 x43,4 + 5 x43,5 + 6 x43,6 - 2 x42,2 - 3 x42,3 - 4 x42,4 - 5 x42,5 - 6 x42,6 - 7 x42,7 <= -1
7 x44,7 + 8 x44,8 + 9 x44,9 + 10 x44,10 + 11 x44,11 - 8 x18,8 - 9 x18,9 - 10 x18,10 - 11 x18,11 - 12 x18,12 <= -1
7 x44,7 + 8 x44,8 + 9 x44,9 + 10 x44,10 + 11 x44,11 - 8 x37,8 - 9 x37,9 - 10 x37,10 - 11 x37,11 - 12 x37,12 <= -1
5 x45,5 + 6 x45,6 + 7 x45,7 + 8 x45,8 + 9 x45,9 - 7 x44,7 - 8 x44,8 - 9 x44,9 - 10 x44,10 - 11 x44,11 <= -2
4 x46,4 + 5 x46,5 + 6 x46,6 + 7 x46,7 + 8 x46,8 - 5 x45,5 - 6 x45,6 - 7 x45,7 - 8 x45,8 - 9 x45,9 <= -1
3 x47,3 + 4 x47,4 + 5 x47,5 + 6 x47,6 + 7 x47,7 - 4 x46,4 - 5 x46,5 - 6 x46,6 - 7 x46,7 - 8 x46,8 <= -1
2 x48,2 + 3 x48,3 + 4 x48,4 + 5 x48,5 + 6 x48,6 - 5 x5,5 - 6 x5,6 - 7 x5,7 - 8 x5,8 - 9 x5,9 - 10 x5,10 - 11 x5,11 - 12 x5,12 <= -1
2 x48,2 + 3 x48,3 + 4 x48,4 + 5 x48,5 + 6 x48,6 - 4 x24,4 - 5 x24,5 - 6 x24,6 - 7 x24,7 - 8 x24,8 - 9 x24,9 - 10 x24,10 - 11 x24,11 <= -1
2 x48,2 + 3 x48,3 + 4 x48,4 + 5 x48,5 + 6 x48,6 - 3 x47,3 - 4 x47,4 - 5 x47,5 - 6 x47,6 - 7 x47,7 <= -1
1 x49,1 + 2 x49,2 + 3 x49,3 + 4 x49,4 + 5 x49,5 - 4 x46,4 - 5 x46,5 - 6 x46,6 - 7 x46,7 - 8 x46,8 <= -1
1 x49,1 + 2 x49,2 + 3 x49,3 + 4 x49,4 + 5 x49,5 - 2 x48,2 - 3 x48,3 - 4 x48,4 - 5 x48,5 - 6 x48,6 <= -1
7 x50,7 + 8 x50,8 + 9 x50,9 + 10 x50,10 + 11 x50,11 - 8 x18,8 - 9 x18,9 - 10 x18,10 - 11 x18,11 - 12 x18,12 <= -1
7 x50,7 + 8 x50,8 + 9 x50,9 + 10 x50,10 + 11 x50,11 - 8 x37,8 - 9 x37,9 - 10 x37,10 - 11 x37,11 - 12 x37,12 <= -1
5 x51,5 + 6 x51,6 + 7 x51,7 + 8 x51,8 + 9 x51,9 - 7 x50,7 - 8 x50,8 - 9 x50,9 - 10 x50,10 - 11 x50,11 <= -2
4 x52,4 + 5 x52,5 + 6 x52,6 + 7 x52,7 + 8 x52,8 - 5 x51,5 - 6 x51,6 - 7 x51,7 - 8 x51,8 - 9 x51,9 <= -1
3 x53,3 + 4 x53,4 + 5 x53,5 + 6 x53,6 + 7 x53,7 - 4 x52,4 - 5 x52,5 - 6 x52,6 - 7 x52,7 - 8 x52,8 <= -1
2 x54,2 + 3 x54,3 + 4 x54,4 + 5 x54,5 + 6 x54,6 - 5 x5,5 - 6 x5,6 - 7 x5,7 - 8 x5,8 - 9 x5,9 - 10 x5,10 - 11 x5,11 - 12 x5,12 <= -1
2 x54,2 + 3 x54,3 + 4 x54,4 + 5 x54,5 + 6 x54,6 - 4 x24,4 - 5 x24,5 - 6 x24,6 - 7 x24,7 - 8 x24,8 - 9 x24,9 - 10 x24,10 - 11 x24,11 <= -1
2 x54,2 + 3 x54,3 + 4 x54,4 + 5 x54,5 + 6 x54,6 - 3 x53,3 - 4 x53,4 - 5 x53,5 - 6 x53,6 - 7 x53,7 <= -1
1 x55,1 + 2 x55,2 + 3 x55,3 + 4 x55,4 + 5 x55,5 - 4 x52,4 - 5 x52,5 - 6 x52,6 - 7 x52,7 - 8 x52,8 <= -1
1 x55,1 + 2 x55,2 + 3 x55,3 + 4 x55,4 + 5 x55,5 - 2 x54,2 - 3 x54,3 - 4 x54,4 - 5 x54,5 - 6 x54,6 <= -1
Bounds
0 <= x0,5 <= 1
0 <= x0,6 <= 1
0 <= x0,7 <= 1
0 <= x0,8 <= 1
0 <= x0,9 <= 1
0 <= x0,10 <= 1
0 <= x0,11 <= 1
0 <= x1,4 <= 1
0 <= x1,5 <= 1
0 <= x1,6 <= 1
0 <= x1,7 <= 1
0 <= x1,8 <= 1
0 <= x1,9 <= 1
0 <= x1,10 <= 1
0 <= x2,3 <= 1
0 <= x2,4 <= 1
0 <= x2,5 <= 1
0 <= x2,6 <= 1
0 <= x2,7 <= 1
0 <= x2,8 <= 1
0 <= x2,9 <= 1
0 <= x3,2 <= 1
0 <= x3,3 <= 1
0 <= x3,4 <= 1
0 <= x3,5 <= 1
0 <= x3,6 <= 1
0 <= x3,7 <= 1
0 <= x3,8 <= 1
0 <= x4,1 <= 1
0 <= x4,2 <= 1
0 <= x4,3 <= 1
0 <= x4,4 <= 1
0 <= x4,5 <= 1
0 <= x4,6 <= 1
0 <= x4,7 <= 1
0 <= x5,5 <= 1
0 <= x5,6 <= 1
0 <= x5,7 <= 1
0 <= x5,8 <= 1
0 <= x5,9 <= 1
0 <= x5,10 <= 1
0 <= x5,11 <= 1
0 <= x5,12 <= 1
0 <= x6,7 <= 1
0 <= x6,8 <= 1
0 <= x6,9 <= 1
0 <= x6,10 <= 1
0 <= x6,11 <= 1
0 <= x6,12 <= 1
0 <= x7,5 <= 1
0 <= x7,6 <= 1
0 <= x7,7 <= 1
0 <= x7,8 <= 1
0 <= x7,9 <= 1
0 <= x7,10 <= 1
0 <= x8,4 <= 1
0 <= x8,5 <= 1
0 <= x8,6 <= 1
0 <= x8,7 <= 1
0 <= x8,8 <= 1
0 <= x8,9 <= 1
0 <= x9,3 <= 1
0 <= x9,4 <= 1
0 <= x9,5 <= 1
0 <= x9,6 <= 1
0 <= x9,7 <= 1
0 <= x9,8 <= 1
0 <= x10,2 <= 1
0 <= x10,3 <= 1
0 <= x10,4 <= 1
0 <= x10,5 <= 1
0 <= x10,6 <= 1
0 <= x10,7 <= 1
0 <= x11,1 <= 1
0 <= x11,2 <= 1
0 <= x11,3 <= 1
0 <= x11,4 <= 1
0 <= x11,5 <= 1
0 <= x11,6 <= 1
0 <= x12,7 <= 1
0 <= x12,8 <= 1
0 <= x12,9 <= 1
0 <= x12,10 <= 1
0 <= x12,11 <= 1
0 <= x12,12 <= 1
0 <= x13,5 <= 1
0 <= x13,6 <= 1
0 <= x13,7 <= 1
0 <= x13,8 <= 1
0 <= x13,9 <= 1
0 <= x13,10 <= 1
0 <= x14,4 <= 1
0 <= x14,5 <= 1
0 <= x14,6 <= 1
0 <= x14,7 <= 1
0 <= x14,8 <= 1
0 <= x14,9 <= 1
0 <= x15,3 <= 1
0 <= x15,4 <= 1
0 <= x15,5 <= 1
0 <= x15,6 <= 1
0 <= x15,7 <= 1
0 <= x15,8 <= 1
0 <= x16,2 <= 1
0 <= x16,3 <= 1
0 <= x16,4 <= 1
0 <= x16,5 <= 1
0 <= x16,6 <= 1
0 <= x16,7 <= 1
0 <= x17,1 <= 1
0 <= x17,2 <= 1
0 <= x17,3 <= 1
0 <= x17,4 <= 1
0 <= x17,5 <= 1
0 <= x17,6 <= 1
0 <= x18,8 <= 1
0 <= x18,9 <= 1
0 <= x18,10 <= 1
0 <= x18,11 <= 1
0 <= x18,12 <= 1
0 <= x19,5 <= 1
0 <= x19,6 <= 1
0 <= x19,7 <= 1
0 <= x19,8 <= 1
0 <= x19,9 <= 1
0 <= x19,10 <= 1
0 <= x20,4 <= 1
0 <= x20,5 <= 1
0 <= x20,6 <= 1
0 <= x20,7 <= 1
0 <= x20,8 <= 1
0 <= x20,9 <= 1
0 <= x21,3 <= 1
0 <= x21,4 <= 1
0 <= x21,5 <= 1
0 <= x21,6 <= 1
0 <= x21,7 <= 1
0 <= x21,8 <= 1
0 <= x22,2 <= 1
0 <= x22,3 <= 1
0 <= x22,4 <= 1
0 <= x22,5 <= 1
0 <= x22,6 <= 1
0 <= x22,7 <= 1
0 <= x23,1 <= 1
0 <= x23,2 <= 1
0 <= x23,3 <= 1
0 <= x23,4 <= 1
0 <= x23,5 <= 1
0 <= x23,6 <= 1
0 <= x24,4 <= 1
0 <= x24,5 <= 1
0 <= x24,6 <= 1
0 <= x24,7 <= 1
0 <= x24,8 <= 1
0 <= x24,9 <= 1
0 <= x24,10 <= 1
0 <= x24,11 <= 1
0 <= x25,7 <= 1
0 <= x25,8 <= 1
0 <= x25,9 <= 1
0 <= x25,10 <= 1
0 <= x25,11 <= 1
0 <= x26,5 <= 1
0 <= x26,6 <= 1
0 <= x26,7 <= 1
0 <= x26,8 <= 1
0 <= x26,9 <= 1
0 <= x27,4 <= 1
0 <= x27,5 <= 1
0 <= x27,6 <= 1
0 <= x27,7 <= 1
0 <= x27,8 <= 1
0 <= x28,3 <= 1
0 <= x28,4 <= 1
0 <= x28,5 <= 1
0 <= x28,6 <= 1
0 <= x28,7 <= 1
0 <= x29,2 <= 1
0 <= x29,3 <= 1
0 <= x29,4 <= 1
0 <= x29,5 <= 1
0 <= x29,6 <= 1
0 <= x30,1 <= 1
0 <= x30,2 <= 1
0 <= x30,3 <= 1
0 <= x30,4 <= 1
0 <= x30,5 <= 1
0 <= x31,7 <= 1
0 <= x31,8 <= 1
0 <= x31,9 <= 1
0 <= x31,10 <= 1
0 <= x31,11 <= 1
0 <= x32,5 <= 1
0 <= x32,6 <= 1
0 <= x32,7 <= 1
0 <= x32,8 <= 1
0 <= x32,9 <= 1
0 <= x33,4 <= 1
0 <= x33,5 <= 1
0 <= x33,6 <= 1
0 <= x33,7 <= 1
0 <= x33,8 <= 1
0 <= x34,3 <= 1
0 <= x34,4 <= 1
0 <= x34,5 <= 1
0 <= x34,6 <= 1
0 <= x34,7 <= 1
0 <= x35,2 <= 1
0 <= x35,3 <= 1
0 <= x35,4 <= 1
0 <= x35,5 <= 1
0 <= x35,6 <= 1
0 <= x36,1 <= 1
0 <= x36,2 <= 1
0 <= x36,3 <= 1
0 <= x36,4 <= 1
0 <= x36,5 <= 1
0 <= x37,8 <= 1
0 <= x37,9 <= 1
0 <= x37,10 <= 1
0 <= x37,11 <= 1
0 <= x37,12 <= 1
0 <= x38,5 <= 1
0 <= x38,6 <= 1
0 <= x38,7 <= 1
0 <= x38,8 <= 1
0 <= x38,9 <= 1
0 <= x38,10 <= 1
0 <= x39,4 <= 1
0 <= x39,5 <= 1
0 <= x39,6 <= 1
0 <= x39,7 <= 1
0 <= x39,8 <= 1
0 <= x39,9 <= 1
0 <= x40,3 <= 1
0 <= x40,4 <= 1
0 <= x40,5 <= 1
0 <= x40,6 <= 1
0 <= x40,7 <= 1
0 <= x40,8 <= 1
0 <= x41,3 <= 1
0 <= x41,4 <= 1
0 <= x41,5 <= 1
0 <= x41,6 <= 1
0 <= x41,7 <= 1
0 <= x41,8 <= 1
0 <= x41,9 <= 1
0 <= x41,10 <= 1
0 <= x42,2 <= 1
0 <= x42,3 <= 1
0 <= x42,4 <= 1
0 <= x42,5 <= 1
0 <= x42,6 <= 1
0 <= x42,7 <= 1
0 <= x43,1 <= 1
0 <= x43,2 <= 1
0 <= x43,3 <= 1
0 <= x43,4 <= 1
0 <= x43,5 <= 1
0 <= x43,6 <= 1
0 <= x44,7 <= 1
0 <= x44,8 <= 1
0 <= x44,9 <= 1
0 <= x44,10 <= 1
0 <= x44,11 <= 1
0 <= x45,5 <= 1
0 <= x45,6 <= 1
0 <= x45,7 <= 1
0 <= x45,8 <= 1
0 <= x45,9 <= 1
0 <= x46,4 <= 1
0 <= x46,5 <= 1
0 <= x46,6 <= 1
0 <= x46,7 <= 1
0 <= x46,8 <= 1
0 <= x47,3 <= 1
0 <= x47,4 <= 1
0 <= x47,5 <= 1
0 <= x47,6 <= 1
0 <= x47,7 <= 1
0 <= x48,2 <= 1
0 <= x48,3 <= 1
0 <= x48,4 <= 1
0 <= x48,5 <= 1
0 <= x48,6 <= 1
0 <= x49,1 <= 1
0 <= x49,2 <= 1
0 <= x49,3 <= 1
0 <= x49,4 <= 1
0 <= x49,5 <= 1
0 <= x50,7 <= 1
0 <= x50,8 <= 1
0 <= x50,9 <= 1
0 <= x50,10 <= 1
0 <= x50,11 <= 1
0 <= x51,5 <= 1
0 <= x51,6 <= 1
0 <= x51,7 <= 1
0 <= x51,8 <= 1
0 <= x51,9 <= 1
0 <= x52,4 <= 1
0 <= x52,5 <= 1
0 <= x52,6 <= 1
0 <= x52,7 <= 1
0 <= x52,8 <= 1
0 <= x53,3 <= 1
0 <= x53,4 <= 1
0 <= x53,5 <= 1
0 <= x53,6 <= 1
0 <= x53,7 <= 1
0 <= x54,2 <= 1
0 <= x54,3 <= 1
0 <= x54,4 <= 1
0 <= x54,5 <= 1
0 <= x54,6 <= 1
0 <= x55,1 <= 1
0 <= x55,2 <= 1
0 <= x55,3 <= 1
0 <= x55,4 <= 1
0 <= x55,5 <= 1
M1 >= 1
M2 >= 1
Generals
x0,5
x0,6
x0,7
x0,8
x0,9
x0,10
x0,11
x1,4
x1,5
x1,6
x1,7
x1,8
x1,9
x1,10
x2,3
x2,4
x2,5
x2,6
x2,7
x2,8
x2,9
x3,2
x3,3
x3,4
x3,5
x3,6
x3,7
x3,8
x4,1
x4,2
x4,3
x4,4
x4,5
x4,6
x4,7
x5,5
x5,6
x5,7
x5,8
x5,9
x5,10
x5,11
x5,12
x6,7
x6,8
x6,9
x6,10
x6,11
x6,12
x7,5
x7,6
x7,7
x7,8
x7,9
x7,10
x8,4
x8,5
x8,6
x8,7
x8,8
x8,9
x9,3
x9,4
x9,5
x9,6
x9,7
x9,8
x10,2
x10,3
x10,4
x10,5
x10,6
x10,7
x11,1
x11,2
x11,3
x11,4
x11,5
x11,6
x12,7
x12,8
x12,9
x12,10
x12,11
x12,12
x13,5
x13,6
x13,7
x13,8
x13,9
x13,10
x14,4
x14,5
x14,6
x14,7
x14,8
x14,9
x15,3
x15,4
x15,5
x15,6
x15,7
x15,8
x16,2
x16,3
x16,4
x16,5
x16,6
x16,7
x17,1
x17,2
x17,3
x17,4
x17,5
x17,6
x18,8
x18,9
x18,10
x18,11
x18,12
x19,5
x19,6
x19,7
x19,8
x19,9
x19,10
x20,4
x20,5
x20,6
x20,7
x20,8
x20,9
x21,3
x21,4
x21,5
x21,6
x21,7
x21,8
x22,2
x22,3
x22,4
x22,5
x22,6
x22,7
x23,1
x23,2
x23,3
x23,4
x23,5
x23,6
x24,4
x24,5
x24,6
x24,7
x24,8
x24,9
x24,10
x24,11
x25,7
x25,8
x25,9
x25,10
x25,11
x26,5
x26,6
x26,7
x26,8
x26,9
x27,4
x27,5
x27,6
x27,7
x27,8
x28,3
x28,4
x28,5
x28,6
x28,7
x29,2
x29,3
x29,4
x29,5
x29,6
x30,1
x30,2
x30,3
x30,4
x30,5
x31,7
x31,8
x31,9
x31,10
x31,11
x32,5
x32,6
x32,7
x32,8
x32,9
x33,4
x33,5
x33,6
x33,7
x33,8
x34,3
x34,4
x34,5
x34,6
x34,7
x35,2
x35,3
x35,4
x35,5
x35,6
x36,1
x36,2
x36,3
x36,4
x36,5
x37,8
x37,9
x37,10
x37,11
x37,12
x38,5
x38,6
x38,7
x38,8
x38,9
x38,10
x39,4
x39,5
x39,6
x39,7
x39,8
x39,9
x40,3
x40,4
x40,5
x40,6
x40,7
x40,8
x41,3
x41,4
x41,5
x41,6
x41,7
x41,8
x41,9
x41,10
x42,2
x42,3
x42,4
x42,5
x42,6
x42,7
x43,1
x43,2
x43,3
x43,4
x43,5
x43,6
x44,7
x44,8
x44,9
x44,10
x44,11
x45,5
x45,6
x45,7
x45,8
x45,9
x46,4
x46,5
x46,6
x46,7
x46,8
x47,3
x47,4
x47,5
x47,6
x47,7
x48,2
x48,3
x48,4
x48,5
x48,6
x49,1
x49,2
x49,3
x49,4
x49,5
x50,7
x50,8
x50,9
x50,10
x50,11
x51,5
x51,6
x51,7
x51,8
x51,9
x52,4
x52,5
x52,6
x52,7
x52,8
x53,3
x53,4
x53,5
x53,6
x53,7
x54,2
x54,3
x54,4
x54,5
x54,6
x55,1
x55,2
x55,3
x55,4
x55,5
M1
M2
End
